% seed = 2230806

mint = 52;
% maxt = 132;

nActs = 22;
dur = [0,10,7,6,2,4,6,7,8,9,8,8,8,7,10,5,4,7,4,3,9,0];

nSkills = 4;
sreq = [| 0,0,0,0,
	| 3,1,0,3,
	| 0,3,1,1,
	| 1,3,2,0,
	| 0,2,2,2,
	| 3,2,1,0,
	| 0,2,1,1,
	| 2,0,3,1,
	| 1,2,0,3,
	| 2,0,2,2,
	| 3,3,0,2,
	| 3,1,0,2,
	| 0,2,2,1,
	| 0,1,3,1,
	| 2,1,2,0,
	| 0,2,3,2,
	| 1,3,0,3,
	| 2,0,1,3,
	| 3,2,0,1,
	| 2,3,0,1,
	| 2,2,0,3,
	| 0,0,0,0, |];

nResources = 25;
mastery = [| true,true,false,true,
	| false,true,false,true,
	| true,true,true,false,
	| false,false,true,true,
	| true,false,false,false,
	| true,true,false,true,
	| true,true,false,true,
	| true,false,true,true,
	| false,false,true,false,
	| false,false,true,false,
	| true,true,true,false,
	| false,true,false,true,
	| false,false,false,true,
	| true,true,true,false,
	| false,true,false,false,
	| true,true,false,false,
	| false,false,true,true,
	| false,true,true,true,
	| false,true,false,true,
	| true,false,true,false,
	| true,false,true,false,
	| false,true,true,true,
	| false,true,false,true,
	| true,false,false,false,
	| true,false,false,false, |];

nPrecs = 43;
pred = [1,1,1,2,2,2,3,3,4,4,5,5,5,6,6,6,7,7,7,8,8,9,9,9,10,10,11,11,11,12,12,13,14,14,15,16,17,17,18,18,19,20,21];
succ = [2,3,4,9,5,6,19,15,12,21,11,12,7,18,12,10,18,14,8,10,13,10,11,13,17,16,17,15,16,17,13,20,19,16,18,21,19,20,20,21,22,22,22];

nUnrels = 84;
unpred = [2,2,3,3,3,3,3,3,3,3,3,3,3,3,3,4,4,4,4,4,4,4,4,4,4,4,5,5,6,6,6,6,6,6,7,7,7,7,8,8,8,8,8,8,9,9,10,10,10,10,10,10,11,11,11,12,12,12,12,12,13,13,13,13,13,13,13,14,14,14,14,15,15,15,16,16,16,16,17,17,18,19,19,20];
unsucc = [3,4,4,5,6,7,8,9,10,11,12,13,14,16,17,5,6,7,8,9,10,11,14,15,16,18,6,9,7,8,9,11,14,15,9,11,12,15,9,11,12,14,15,18,12,14,11,12,13,14,15,18,12,13,14,14,15,16,18,21,14,15,16,17,18,19,21,15,17,18,20,16,17,19,17,18,19,20,18,21,19,20,21,21];

USEFUL_RES = [{},
	{1,2,3,4,5,6,7,8,11,12,13,14,15,16,17,18,19,20,21,22,23,24,25},
	{1,2,3,4,6,7,8,9,10,11,12,13,14,15,16,17,18,19,20,21,22,23},
	{1,2,3,4,5,6,7,8,9,10,11,12,14,15,16,17,18,19,20,21,22,23,24,25},
	{1,2,3,4,6,7,8,9,10,11,12,13,14,15,16,17,18,19,20,21,22,23},
	{1,2,3,4,5,6,7,8,9,10,11,12,14,15,16,17,18,19,20,21,22,23,24,25},
	{1,2,3,4,6,7,8,9,10,11,12,13,14,15,16,17,18,19,20,21,22,23},
	{1,2,3,4,5,6,7,8,9,10,11,12,13,14,16,17,18,19,20,21,22,23,24,25},
	{1,2,3,4,5,6,7,8,11,12,13,14,15,16,17,18,19,20,21,22,23,24,25},
	{1,2,3,4,5,6,7,8,9,10,11,12,13,14,16,17,18,19,20,21,22,23,24,25},
	{1,2,3,4,5,6,7,8,11,12,13,14,15,16,17,18,19,20,21,22,23,24,25},
	{1,2,3,4,5,6,7,8,11,12,13,14,15,16,17,18,19,20,21,22,23,24,25},
	{1,2,3,4,6,7,8,9,10,11,12,13,14,15,16,17,18,19,20,21,22,23},
	{1,2,3,4,6,7,8,9,10,11,12,13,14,15,16,17,18,19,20,21,22,23},
	{1,2,3,4,5,6,7,8,9,10,11,12,14,15,16,17,18,19,20,21,22,23,24,25},
	{1,2,3,4,6,7,8,9,10,11,12,13,14,15,16,17,18,19,20,21,22,23},
	{1,2,3,4,5,6,7,8,11,12,13,14,15,16,17,18,19,20,21,22,23,24,25},
	{1,2,3,4,5,6,7,8,9,10,11,12,13,14,16,17,18,19,20,21,22,23,24,25},
	{1,2,3,4,5,6,7,8,11,12,13,14,15,16,17,18,19,20,21,22,23,24,25},
	{1,2,3,4,5,6,7,8,11,12,13,14,15,16,17,18,19,20,21,22,23,24,25},
	{1,2,3,4,5,6,7,8,11,12,13,14,15,16,17,18,19,20,21,22,23,24,25},
	{}];

POTENTIAL_ACT = [{2,3,4,5,6,7,8,9,10,11,12,13,14,15,16,17,18,19,20,21},
	{2,3,4,5,6,7,8,9,10,11,12,13,14,15,16,17,18,19,20,21},
	{2,3,4,5,6,7,8,9,10,11,12,13,14,15,16,17,18,19,20,21},
	{2,3,4,5,6,7,8,9,10,11,12,13,14,15,16,17,18,19,20,21},
	{2,4,6,8,9,10,11,12,15,17,18,19,20,21},
	{2,3,4,5,6,7,8,9,10,11,12,13,14,15,16,17,18,19,20,21},
	{2,3,4,5,6,7,8,9,10,11,12,13,14,15,16,17,18,19,20,21},
	{2,3,4,5,6,7,8,9,10,11,12,13,14,15,16,17,18,19,20,21},
	{3,4,5,6,7,8,10,13,14,15,16,18},
	{3,4,5,6,7,8,10,13,14,15,16,18},
	{2,3,4,5,6,7,8,9,10,11,12,13,14,15,16,17,18,19,20,21},
	{2,3,4,5,6,7,8,9,10,11,12,13,14,15,16,17,18,19,20,21},
	{2,3,5,7,8,9,10,11,12,13,14,16,17,18,19,20,21},
	{2,3,4,5,6,7,8,9,10,11,12,13,14,15,16,17,18,19,20,21},
	{2,3,4,5,6,7,9,11,12,13,14,15,16,17,19,20,21},
	{2,3,4,5,6,7,8,9,10,11,12,13,14,15,16,17,18,19,20,21},
	{2,3,4,5,6,7,8,9,10,11,12,13,14,15,16,17,18,19,20,21},
	{2,3,4,5,6,7,8,9,10,11,12,13,14,15,16,17,18,19,20,21},
	{2,3,4,5,6,7,8,9,10,11,12,13,14,15,16,17,18,19,20,21},
	{2,3,4,5,6,7,8,9,10,11,12,13,14,15,16,17,18,19,20,21},
	{2,3,4,5,6,7,8,9,10,11,12,13,14,15,16,17,18,19,20,21},
	{2,3,4,5,6,7,8,9,10,11,12,13,14,15,16,17,18,19,20,21},
	{2,3,4,5,6,7,8,9,10,11,12,13,14,15,16,17,18,19,20,21},
	{2,4,6,8,9,10,11,12,15,17,18,19,20,21},
	{2,4,6,8,9,10,11,12,15,17,18,19,20,21}];
